Traveling Salesman Problem/TSP_generados/Aleatorio1620390866_6.tsp
NAME: Aleatorio1620390866_6.tsp
COMMENT: Randomly generated scenario
TYPE: TSP
DIMENSION: 6
EDGE_WEIGHT_TYPE: ATT
NODE_COORD_SECTION
1 4.92 27.88
2 47.42 47.2
3 2.67 38.52
4 27.86 28.5
5 16.57 25.06
6 16.27 29.93
