Traveling Salesman Problem/TSP_generados/Aleatorio1620390866_6.opt.tour
NAME: Aleatorio1620390866_6.opt.tour
COMMENT: Optimal solution for Aleatorio1620390866_6 (111.7354015392653)
TYPE: TOUR
DIMENSION: 6
TOUR_SECTION
1 6 5 4 2 3
-1
EOF
